n_res = 4;
rc = [ 11, 13, 12, 11 ];
n_tasks = 120;
d = [ 5, 10, 8, 2, 6, 9, 9, 8, 8, 9, 6, 7, 1, 9, 8, 9, 3, 8, 5, 5, 7, 4, 2, 10, 1, 4, 5, 10, 1, 6, 6, 9, 3, 10, 6, 7, 10, 4, 9, 8, 4, 7, 5, 9, 6, 4, 6, 3, 3, 7, 5, 7, 1, 8, 9, 10, 8, 4, 3, 6, 9, 10, 3, 6, 3, 6, 10, 9, 4, 10, 6, 2, 4, 2, 2, 2, 2, 5, 10, 2, 2, 2, 1, 3, 2, 1, 6, 9, 10, 1, 1, 5, 3, 6, 6, 7, 4, 10, 2, 9, 1, 10, 6, 1, 9, 2, 1, 5, 9, 8, 8, 10, 5, 10, 5, 8, 9, 8, 6, 2 ];
rr = [| 3, 0, 10, 0, 8, 0, 0, 0, 0, 7, 0, 0, 0, 0, 0, 0, 0, 0, 0, 10, 0, 0, 0, 0, 0, 0, 0, 0, 0, 0, 0, 0, 0, 6, 0, 3, 0, 2, 0, 9, 0, 0, 7, 0, 0, 8, 0, 0, 9, 3, 7, 0, 0, 0, 0, 0, 0, 0, 0, 0, 0, 0, 0, 0, 0, 0, 0, 9, 0, 0, 5, 0, 6, 0, 0, 0, 0, 4, 3, 5, 0, 0, 0, 0, 0, 0, 0, 0, 0, 0, 0, 0, 0, 5, 0, 0, 0, 0, 0, 0, 1, 4, 0, 8, 0, 0, 1, 0, 0, 0, 0, 0, 0, 0, 0, 0, 0, 0, 0, 0
      | 0, 0, 0, 4, 0, 9, 4, 0, 1, 0, 10, 0, 0, 2, 9, 6, 7, 0, 9, 0, 0, 0, 0, 0, 0, 0, 0, 0, 3, 8, 2, 0, 5, 0, 0, 0, 0, 0, 0, 0, 0, 0, 0, 0, 4, 0, 6, 0, 0, 0, 0, 10, 0, 0, 6, 0, 8, 0, 1, 0, 0, 5, 1, 0, 5, 0, 0, 0, 0, 0, 0, 0, 0, 0, 7, 0, 3, 0, 0, 0, 0, 0, 0, 0, 0, 0, 0, 0, 7, 0, 0, 0, 1, 0, 10, 0, 0, 6, 0, 0, 0, 0, 0, 0, 0, 0, 0, 0, 9, 3, 0, 0, 9, 8, 7, 0, 0, 0, 0, 0
      | 0, 7, 0, 0, 0, 0, 0, 9, 0, 0, 0, 2, 10, 0, 0, 0, 0, 10, 0, 0, 0, 0, 9, 0, 0, 10, 0, 2, 0, 0, 0, 1, 0, 0, 6, 0, 0, 0, 0, 0, 9, 0, 0, 0, 0, 0, 0, 0, 0, 0, 0, 0, 0, 7, 0, 2, 0, 0, 0, 0, 8, 0, 0, 0, 0, 2, 0, 0, 0, 3, 0, 0, 0, 9, 0, 0, 0, 0, 0, 0, 7, 9, 5, 10, 9, 0, 0, 3, 0, 3, 0, 0, 0, 0, 0, 0, 2, 0, 2, 9, 0, 0, 6, 0, 9, 4, 0, 5, 0, 0, 0, 2, 0, 0, 0, 6, 8, 9, 4, 0
      | 0, 0, 0, 0, 0, 0, 0, 0, 0, 0, 0, 0, 0, 0, 0, 0, 0, 0, 0, 0, 4, 5, 0, 2, 2, 0, 4, 0, 0, 0, 0, 0, 0, 0, 0, 0, 7, 0, 2, 0, 0, 4, 0, 8, 0, 0, 0, 2, 0, 0, 0, 0, 2, 0, 0, 0, 0, 7, 0, 3, 0, 0, 0, 8, 0, 0, 8, 0, 7, 0, 0, 2, 0, 0, 0, 10, 0, 0, 0, 0, 0, 0, 0, 0, 0, 6, 9, 0, 0, 0, 3, 10, 0, 0, 0, 1, 0, 0, 0, 0, 0, 0, 0, 0, 0, 0, 0, 0, 0, 0, 5, 0, 0, 0, 0, 0, 0, 0, 0, 6 |];
suc = [ { 2 }, 
        { 1 }, 
        { 4 }, 
        { 3 }, 
        { 6 }, 
        { 5 }, 
        { 8 }, 
        { 7 }, 
        { 10 }, 
        { 9 }, 
        { 12 }, 
        { 11 }, 
        { 14 }, 
        { 13 }, 
        { 16 }, 
        { 15 }, 
        { 18 }, 
        { 17 }, 
        { 20 }, 
        { 19 }, 
        { 22 }, 
        { 21 }, 
        { 24 }, 
        { 23 }, 
        { 26 }, 
        { 25 }, 
        { 28 }, 
        { 27 }, 
        { 30 }, 
        { 29 }, 
        { 32 }, 
        { 31 }, 
        { 34 }, 
        { 33 }, 
        { 36 }, 
        { 35 }, 
        { 38 }, 
        { 37 }, 
        { 40 }, 
        { 39 }, 
        { 42 }, 
        { 41 }, 
        { 44 }, 
        { 43 }, 
        { 46 }, 
        { 45 }, 
        { 48 }, 
        { 47 }, 
        { 50 }, 
        { 49 }, 
        { 52 }, 
        { 51 }, 
        { 54 }, 
        { 53 }, 
        { 56 }, 
        { 55 }, 
        { 58 }, 
        { 57 }, 
        { 60 }, 
        { 59 }, 
        { 62 }, 
        { 61 }, 
        { 64 }, 
        { 63 }, 
        { 66 }, 
        { 65 }, 
        { 68 }, 
        { 67 }, 
        { 70 }, 
        { 69 }, 
        { 72 }, 
        { 71 }, 
        { 74 }, 
        { 73 }, 
        { 76 }, 
        { 75 }, 
        { 78 }, 
        { 77 }, 
        { 80 }, 
        { 79 }, 
        { 82 }, 
        { 81 }, 
        { 84 }, 
        { 83 }, 
        { 86 }, 
        { 85 }, 
        { 88 }, 
        { 87 }, 
        { 90 }, 
        { 89 }, 
        { 92 }, 
        { 91 }, 
        { 94 }, 
        { 93 }, 
        { 96 }, 
        { 95 }, 
        { 98 }, 
        { 97 }, 
        { 100 }, 
        { 99 }, 
        { 102 }, 
        { 101 }, 
        { 104 }, 
        { 103 }, 
        { 106 }, 
        { 105 }, 
        { 108 }, 
        { 107 }, 
        { 110 }, 
        { 109 }, 
        { 112 }, 
        { 111 }, 
        { 114 }, 
        { 113 }, 
        { 116 }, 
        { 115 }, 
        { 118 }, 
        { 117 }, 
        { 120 }, 
        { 119 }]; 
